NAME : portcgen-27-11
COMMENT : portcgen N=27, seed=11
TYPE : TSP
DIMENSION : 27
EDGE_WEIGHT_TYPE : EUC_2D
NODE_COORD_SECTION
1 -338526 -1724
2 80594 -240544
3 -301480 63369
4 -164386 12902
5 157183 -143014
6 84863 -524102
7 161293 -101630
8 193776 315197
9 70334 -117134
10 -118117 -193606
11 30447 26449
12 75153 261030
13 -358959 -196998
14 339774 219643
15 34603 -17599
16 -169410 180481
17 266594 -152580
18 235445 37982
19 -133016 -150358
20 31204 340207
21 9092 -46135
22 -44276 107495
23 182172 25601
24 -71555 94836
25 -32743 -9760
26 28712 17829
27 257508 -361560
